c description: Random 3-CNF over 16 variables and 32 clauses
p cnf 16 32
-7 -8 -14 0
9 -10 -15 0
4 9 16 0
3 7 12 0
-7 -9 -10 0
2 -6 12 0
1 -2 -5 0
2 -5 -8 0
6 13 -15 0
6 11 -12 0
7 12 13 0
10 -13 -16 0
-1 3 -8 0
-3 -8 -9 0
3 4 5 0
-3 5 12 0
-8 12 14 0
-1 -4 13 0
-3 10 -12 0
-7 -11 -14 0
3 -4 6 0
-3 -8 13 0
7 9 10 0
1 4 11 0
1 3 14 0
4 -6 -9 0
11 13 -15 0
-3 -8 16 0
-3 4 13 0
-10 12 16 0
-5 11 -12 0
4 -11 15 0